GeneratedTests/Random_10/Random_10_1.tsp
NAME: Random_10_1
TYPE: TSP
DIMENSION: 10
EDGE_WEIGHT_TYPE: EUC_2D
NODE_COORD_SECTION
1 28.006649 22.932152
2 26.077059 7.281155
3 25.973227 25.040386
4 18.550106 21.109339
5 28.033068 7.44347
6 6.9894953 0.17042935
7 15.248612 10.528176
8 14.852509 14.68942
9 17.43817 4.14063
10 19.359432 16.457281
EOF
