GeneratedTests/Random_10/Random_10_1.txt
NAME: Random_10_1
TYPE: TSP
DIMENSION: 10
EDGE_WEIGHT_TYPE: EUC_2D
NODE_COORD_SECTION
1 3.9413862 10.490791
2 2.973506 19.365576
3 12.366491 3.903449
4 8.533398 28.248842
5 17.399233 20.369492
6 14.7041645 23.909367
7 28.276546 21.55643
8 18.10627 20.756378
9 13.217935 23.952982
10 8.206047 26.766127
EOF
